c nIsolatedPIs 3
c maxPI 132
p cnf 733 1804
c gate 133 -103 127 0
-103 -133 0
127 -133 0
103 -127 133 0
c gate 134 -105 -127 0
-105 -134 0
-127 -134 0
105 127 134 0
c gate 135 126 -134 0
126 -135 0
-134 -135 0
-126 134 135 0
c gate 136 -133 135 0
-133 -136 0
135 -136 0
133 -135 136 0
c gate 137 -106 -127 0
-106 -137 0
-127 -137 0
106 127 137 0
c gate 138 -104 127 0
-104 -138 0
127 -138 0
104 -127 138 0
c gate 139 -137 -138 0
-137 -139 0
-138 -139 0
137 138 139 0
c gate 140 -126 139 0
-126 -140 0
139 -140 0
126 -139 140 0
c gate 141 -129 -140 0
-129 -141 0
-140 -141 0
129 140 141 0
c gate 142 -136 141 0
-136 -142 0
141 -142 0
136 -141 142 0
c gate 143 -95 127 0
-95 -143 0
127 -143 0
95 -127 143 0
c gate 144 -97 -127 0
-97 -144 0
-127 -144 0
97 127 144 0
c gate 145 -143 -144 0
-143 -145 0
-144 -145 0
143 144 145 0
c gate 146 126 145 0
126 -146 0
145 -146 0
-126 -145 146 0
c gate 147 -98 -127 0
-98 -147 0
-127 -147 0
98 127 147 0
c gate 148 -96 127 0
-96 -148 0
127 -148 0
96 -127 148 0
c gate 149 -126 -148 0
-126 -149 0
-148 -149 0
126 148 149 0
c gate 150 -147 149 0
-147 -150 0
149 -150 0
147 -149 150 0
c gate 151 129 -150 0
129 -151 0
-150 -151 0
-129 150 151 0
c gate 152 -146 151 0
-146 -152 0
151 -152 0
146 -151 152 0
c gate 153 -142 -152 0
-142 -153 0
-152 -153 0
142 152 153 0
c gate 154 128 -153 0
128 -154 0
-153 -154 0
-128 153 154 0
c gate 155 -99 127 0
-99 -155 0
127 -155 0
99 -127 155 0
c gate 156 -101 -127 0
-101 -156 0
-127 -156 0
101 127 156 0
c gate 157 -155 -156 0
-155 -157 0
-156 -157 0
155 156 157 0
c gate 158 126 157 0
126 -158 0
157 -158 0
-126 -157 158 0
c gate 159 -102 -127 0
-102 -159 0
-127 -159 0
102 127 159 0
c gate 160 -100 127 0
-100 -160 0
127 -160 0
100 -127 160 0
c gate 161 -126 -160 0
-126 -161 0
-160 -161 0
126 160 161 0
c gate 162 -159 161 0
-159 -162 0
161 -162 0
159 -161 162 0
c gate 163 129 -162 0
129 -163 0
-162 -163 0
-129 162 163 0
c gate 164 -158 163 0
-158 -164 0
163 -164 0
158 -163 164 0
c gate 165 -107 127 0
-107 -165 0
127 -165 0
107 -127 165 0
c gate 166 -109 -127 0
-109 -166 0
-127 -166 0
109 127 166 0
c gate 167 126 -166 0
126 -167 0
-166 -167 0
-126 166 167 0
c gate 168 -165 167 0
-165 -168 0
167 -168 0
165 -167 168 0
c gate 169 -110 -127 0
-110 -169 0
-127 -169 0
110 127 169 0
c gate 170 -108 127 0
-108 -170 0
127 -170 0
108 -127 170 0
c gate 171 -169 -170 0
-169 -171 0
-170 -171 0
169 170 171 0
c gate 172 -126 171 0
-126 -172 0
171 -172 0
126 -171 172 0
c gate 173 -129 -172 0
-129 -173 0
-172 -173 0
129 172 173 0
c gate 174 -168 173 0
-168 -174 0
173 -174 0
168 -173 174 0
c gate 175 -164 -174 0
-164 -175 0
-174 -175 0
164 174 175 0
c gate 176 -128 -175 0
-128 -176 0
-175 -176 0
128 175 176 0
c gate 177 -131 -176 0
-131 -177 0
-176 -177 0
131 176 177 0
c gate 178 -154 177 0
-154 -178 0
177 -178 0
154 -177 178 0
c gate 179 -74 -127 0
-74 -179 0
-127 -179 0
74 127 179 0
c gate 180 -72 127 0
-72 -180 0
127 -180 0
72 -127 180 0
c gate 181 126 -180 0
126 -181 0
-180 -181 0
-126 180 181 0
c gate 182 -179 181 0
-179 -182 0
181 -182 0
179 -181 182 0
c gate 183 -75 -127 0
-75 -183 0
-127 -183 0
75 127 183 0
c gate 184 -73 127 0
-73 -184 0
127 -184 0
73 -127 184 0
c gate 185 -183 -184 0
-183 -185 0
-184 -185 0
183 184 185 0
c gate 186 -126 185 0
-126 -186 0
185 -186 0
126 -185 186 0
c gate 187 -129 -186 0
-129 -187 0
-186 -187 0
129 186 187 0
c gate 188 -182 187 0
-182 -188 0
187 -188 0
182 -187 188 0
c gate 189 -64 127 0
-64 -189 0
127 -189 0
64 -127 189 0
c gate 190 -66 -127 0
-66 -190 0
-127 -190 0
66 127 190 0
c gate 191 -189 -190 0
-189 -191 0
-190 -191 0
189 190 191 0
c gate 192 126 191 0
126 -192 0
191 -192 0
-126 -191 192 0
c gate 193 -67 -127 0
-67 -193 0
-127 -193 0
67 127 193 0
c gate 194 -65 127 0
-65 -194 0
127 -194 0
65 -127 194 0
c gate 195 -193 -194 0
-193 -195 0
-194 -195 0
193 194 195 0
c gate 196 -126 195 0
-126 -196 0
195 -196 0
126 -195 196 0
c gate 197 129 -196 0
129 -197 0
-196 -197 0
-129 196 197 0
c gate 198 -192 197 0
-192 -198 0
197 -198 0
192 -197 198 0
c gate 199 -188 -198 0
-188 -199 0
-198 -199 0
188 198 199 0
c gate 200 128 -199 0
128 -200 0
-199 -200 0
-128 199 200 0
c gate 201 -70 -127 0
-70 -201 0
-127 -201 0
70 127 201 0
c gate 202 -68 127 0
-68 -202 0
127 -202 0
68 -127 202 0
c gate 203 126 -202 0
126 -203 0
-202 -203 0
-126 202 203 0
c gate 204 -201 203 0
-201 -204 0
203 -204 0
201 -203 204 0
c gate 205 -71 -127 0
-71 -205 0
-127 -205 0
71 127 205 0
c gate 206 -69 127 0
-69 -206 0
127 -206 0
69 -127 206 0
c gate 207 -205 -206 0
-205 -207 0
-206 -207 0
205 206 207 0
c gate 208 -126 207 0
-126 -208 0
207 -208 0
126 -207 208 0
c gate 209 129 -208 0
129 -209 0
-208 -209 0
-129 208 209 0
c gate 210 -204 209 0
-204 -210 0
209 -210 0
204 -209 210 0
c gate 211 -78 -127 0
-78 -211 0
-127 -211 0
78 127 211 0
c gate 212 -76 127 0
-76 -212 0
127 -212 0
76 -127 212 0
c gate 213 126 -212 0
126 -213 0
-212 -213 0
-126 212 213 0
c gate 214 -211 213 0
-211 -214 0
213 -214 0
211 -213 214 0
c gate 215 -79 -127 0
-79 -215 0
-127 -215 0
79 127 215 0
c gate 216 -77 127 0
-77 -216 0
127 -216 0
77 -127 216 0
c gate 217 -215 -216 0
-215 -217 0
-216 -217 0
215 216 217 0
c gate 218 -126 217 0
-126 -218 0
217 -218 0
126 -217 218 0
c gate 219 -129 -218 0
-129 -219 0
-218 -219 0
129 218 219 0
c gate 220 -214 219 0
-214 -220 0
219 -220 0
214 -219 220 0
c gate 221 -210 -220 0
-210 -221 0
-220 -221 0
210 220 221 0
c gate 222 -128 -221 0
-128 -222 0
-221 -222 0
128 221 222 0
c gate 223 131 -222 0
131 -223 0
-222 -223 0
-131 222 223 0
c gate 224 -200 223 0
-200 -224 0
223 -224 0
200 -223 224 0
c gate 225 130 -224 0
130 -225 0
-224 -225 0
-130 224 225 0
c gate 226 -178 225 0
-178 -226 0
225 -226 0
178 -225 226 0
c gate 227 132 226 0
132 -227 0
226 -227 0
-132 -226 227 0
c gate 228 -38 127 0
-38 -228 0
127 -228 0
38 -127 228 0
c gate 229 -40 -127 0
-40 -229 0
-127 -229 0
40 127 229 0
c gate 230 -126 -229 0
-126 -230 0
-229 -230 0
126 229 230 0
c gate 231 -228 230 0
-228 -231 0
230 -231 0
228 -230 231 0
c gate 232 -37 127 0
-37 -232 0
127 -232 0
37 -127 232 0
c gate 233 -39 -127 0
-39 -233 0
-127 -233 0
39 127 233 0
c gate 234 126 -233 0
126 -234 0
-233 -234 0
-126 233 234 0
c gate 235 -232 234 0
-232 -235 0
234 -235 0
232 -234 235 0
c gate 236 129 -235 0
129 -236 0
-235 -236 0
-129 235 236 0
c gate 237 -231 236 0
-231 -237 0
236 -237 0
231 -236 237 0
c gate 238 -45 127 0
-45 -238 0
127 -238 0
45 -127 238 0
c gate 239 -47 -127 0
-47 -239 0
-127 -239 0
47 127 239 0
c gate 240 126 -239 0
126 -240 0
-239 -240 0
-126 239 240 0
c gate 241 -238 240 0
-238 -241 0
240 -241 0
238 -240 241 0
c gate 242 -46 127 0
-46 -242 0
127 -242 0
46 -127 242 0
c gate 243 -48 -127 0
-48 -243 0
-127 -243 0
48 127 243 0
c gate 244 -126 -243 0
-126 -244 0
-243 -244 0
126 243 244 0
c gate 245 -242 244 0
-242 -245 0
244 -245 0
242 -244 245 0
c gate 246 -241 -245 0
-241 -246 0
-245 -246 0
241 245 246 0
c gate 247 -129 246 0
-129 -247 0
246 -247 0
129 -246 247 0
c gate 248 -128 -247 0
-128 -248 0
-247 -248 0
128 247 248 0
c gate 249 -237 248 0
-237 -249 0
248 -249 0
237 -248 249 0
c gate 250 -34 127 0
-34 -250 0
127 -250 0
34 -127 250 0
c gate 251 -36 -127 0
-36 -251 0
-127 -251 0
36 127 251 0
c gate 252 -126 -251 0
-126 -252 0
-251 -252 0
126 251 252 0
c gate 253 -250 252 0
-250 -253 0
252 -253 0
250 -252 253 0
c gate 254 -33 127 0
-33 -254 0
127 -254 0
33 -127 254 0
c gate 255 -35 -127 0
-35 -255 0
-127 -255 0
35 127 255 0
c gate 256 126 -255 0
126 -256 0
-255 -256 0
-126 255 256 0
c gate 257 -254 256 0
-254 -257 0
256 -257 0
254 -256 257 0
c gate 258 129 -257 0
129 -258 0
-257 -258 0
-129 257 258 0
c gate 259 -253 258 0
-253 -259 0
258 -259 0
253 -258 259 0
c gate 260 -41 127 0
-41 -260 0
127 -260 0
41 -127 260 0
c gate 261 -43 -127 0
-43 -261 0
-127 -261 0
43 127 261 0
c gate 262 126 -261 0
126 -262 0
-261 -262 0
-126 261 262 0
c gate 263 -260 262 0
-260 -263 0
262 -263 0
260 -262 263 0
c gate 264 -42 127 0
-42 -264 0
127 -264 0
42 -127 264 0
c gate 265 -44 -127 0
-44 -265 0
-127 -265 0
44 127 265 0
c gate 266 -126 -265 0
-126 -266 0
-265 -266 0
126 265 266 0
c gate 267 -264 266 0
-264 -267 0
266 -267 0
264 -266 267 0
c gate 268 -263 -267 0
-263 -268 0
-267 -268 0
263 267 268 0
c gate 269 -129 268 0
-129 -269 0
268 -269 0
129 -268 269 0
c gate 270 128 -269 0
128 -270 0
-269 -270 0
-128 269 270 0
c gate 271 -259 270 0
-259 -271 0
270 -271 0
259 -270 271 0
c gate 272 -249 -271 0
-249 -272 0
-271 -272 0
249 271 272 0
c gate 273 131 -272 0
131 -273 0
-272 -273 0
-131 272 273 0
c gate 274 126 195 0
126 -274 0
195 -274 0
-126 -195 274 0
c gate 275 -66 127 0
-66 -275 0
127 -275 0
66 -127 275 0
c gate 276 -68 -127 0
-68 -276 0
-127 -276 0
68 127 276 0
c gate 277 -126 -276 0
-126 -277 0
-276 -277 0
126 276 277 0
c gate 278 -275 277 0
-275 -278 0
277 -278 0
275 -277 278 0
c gate 279 129 -278 0
129 -279 0
-278 -279 0
-129 278 279 0
c gate 280 -274 279 0
-274 -280 0
279 -280 0
274 -279 280 0
c gate 281 126 185 0
126 -281 0
185 -281 0
-126 -185 281 0
c gate 282 -74 127 0
-74 -282 0
127 -282 0
74 -127 282 0
c gate 283 -76 -127 0
-76 -283 0
-127 -283 0
76 127 283 0
c gate 284 -126 -283 0
-126 -284 0
-283 -284 0
126 283 284 0
c gate 285 -282 284 0
-282 -285 0
284 -285 0
282 -284 285 0
c gate 286 -129 -285 0
-129 -286 0
-285 -286 0
129 285 286 0
c gate 287 -281 286 0
-281 -287 0
286 -287 0
281 -286 287 0
c gate 288 -280 -287 0
-280 -288 0
-287 -288 0
280 287 288 0
c gate 289 128 -288 0
128 -289 0
-288 -289 0
-128 288 289 0
c gate 290 126 217 0
126 -290 0
217 -290 0
-126 -217 290 0
c gate 291 -78 127 0
-78 -291 0
127 -291 0
78 -127 291 0
c gate 292 -80 -127 0
-80 -292 0
-127 -292 0
80 127 292 0
c gate 293 -126 -292 0
-126 -293 0
-292 -293 0
126 292 293 0
c gate 294 -291 293 0
-291 -294 0
293 -294 0
291 -293 294 0
c gate 295 -129 -294 0
-129 -295 0
-294 -295 0
129 294 295 0
c gate 296 -290 295 0
-290 -296 0
295 -296 0
290 -295 296 0
c gate 297 126 207 0
126 -297 0
207 -297 0
-126 -207 297 0
c gate 298 -70 127 0
-70 -298 0
127 -298 0
70 -127 298 0
c gate 299 -72 -127 0
-72 -299 0
-127 -299 0
72 127 299 0
c gate 300 -126 -299 0
-126 -300 0
-299 -300 0
126 299 300 0
c gate 301 -298 300 0
-298 -301 0
300 -301 0
298 -300 301 0
c gate 302 129 -301 0
129 -302 0
-301 -302 0
-129 301 302 0
c gate 303 -297 302 0
-297 -303 0
302 -303 0
297 -302 303 0
c gate 304 -296 -303 0
-296 -304 0
-303 -304 0
296 303 304 0
c gate 305 -128 -304 0
-128 -305 0
-304 -305 0
128 304 305 0
c gate 306 -131 -305 0
-131 -306 0
-305 -306 0
131 305 306 0
c gate 307 -289 306 0
-289 -307 0
306 -307 0
289 -306 307 0
c gate 308 -273 -307 0
-273 -308 0
-307 -308 0
273 307 308 0
c gate 309 130 -308 0
130 -309 0
-308 -309 0
-130 308 309 0
c gate 310 132 309 0
132 -310 0
309 -310 0
-132 -309 310 0
c gate 311 12 -127 0
12 -311 0
-127 -311 0
-12 127 311 0
c gate 312 10 127 0
10 -312 0
127 -312 0
-10 -127 312 0
c gate 313 -126 -312 0
-126 -313 0
-312 -313 0
126 312 313 0
c gate 314 -311 313 0
-311 -314 0
313 -314 0
311 -313 314 0
c gate 315 11 -127 0
11 -315 0
-127 -315 0
-11 127 315 0
c gate 316 9 127 0
9 -316 0
127 -316 0
-9 -127 316 0
c gate 317 126 -316 0
126 -317 0
-316 -317 0
-126 316 317 0
c gate 318 -315 317 0
-315 -318 0
317 -318 0
315 -317 318 0
c gate 319 -314 -318 0
-314 -319 0
-318 -319 0
314 318 319 0
c gate 320 129 -319 0
129 -320 0
-319 -320 0
-129 319 320 0
c gate 321 19 -127 0
19 -321 0
-127 -321 0
-19 127 321 0
c gate 322 17 127 0
17 -322 0
127 -322 0
-17 -127 322 0
c gate 323 126 -322 0
126 -323 0
-322 -323 0
-126 322 323 0
c gate 324 -321 323 0
-321 -324 0
323 -324 0
321 -323 324 0
c gate 325 20 -127 0
20 -325 0
-127 -325 0
-20 127 325 0
c gate 326 18 127 0
18 -326 0
127 -326 0
-18 -127 326 0
c gate 327 -126 -326 0
-126 -327 0
-326 -327 0
126 326 327 0
c gate 328 -325 327 0
-325 -328 0
327 -328 0
325 -327 328 0
c gate 329 -324 -328 0
-324 -329 0
-328 -329 0
324 328 329 0
c gate 330 -129 -329 0
-129 -330 0
-329 -330 0
129 329 330 0
c gate 331 128 -330 0
128 -331 0
-330 -331 0
-128 330 331 0
c gate 332 -320 331 0
-320 -332 0
331 -332 0
320 -331 332 0
c gate 333 16 -127 0
16 -333 0
-127 -333 0
-16 127 333 0
c gate 334 14 127 0
14 -334 0
127 -334 0
-14 -127 334 0
c gate 335 -126 -334 0
-126 -335 0
-334 -335 0
126 334 335 0
c gate 336 -333 335 0
-333 -336 0
335 -336 0
333 -335 336 0
c gate 337 15 -127 0
15 -337 0
-127 -337 0
-15 127 337 0
c gate 338 13 127 0
13 -338 0
127 -338 0
-13 -127 338 0
c gate 339 126 -338 0
126 -339 0
-338 -339 0
-126 338 339 0
c gate 340 -337 339 0
-337 -340 0
339 -340 0
337 -339 340 0
c gate 341 -336 -340 0
-336 -341 0
-340 -341 0
336 340 341 0
c gate 342 129 -341 0
129 -342 0
-341 -342 0
-129 341 342 0
c gate 343 23 -127 0
23 -343 0
-127 -343 0
-23 127 343 0
c gate 344 21 127 0
21 -344 0
127 -344 0
-21 -127 344 0
c gate 345 126 -344 0
126 -345 0
-344 -345 0
-126 344 345 0
c gate 346 -343 345 0
-343 -346 0
345 -346 0
343 -345 346 0
c gate 347 24 -127 0
24 -347 0
-127 -347 0
-24 127 347 0
c gate 348 22 127 0
22 -348 0
127 -348 0
-22 -127 348 0
c gate 349 -126 -348 0
-126 -349 0
-348 -349 0
126 348 349 0
c gate 350 -347 349 0
-347 -350 0
349 -350 0
347 -349 350 0
c gate 351 -346 -350 0
-346 -351 0
-350 -351 0
346 350 351 0
c gate 352 -129 -351 0
-129 -352 0
-351 -352 0
129 351 352 0
c gate 353 -128 -352 0
-128 -353 0
-352 -353 0
128 352 353 0
c gate 354 -342 353 0
-342 -354 0
353 -354 0
342 -353 354 0
c gate 355 -332 -354 0
-332 -355 0
-354 -355 0
332 354 355 0
c gate 356 131 355 0
131 -356 0
355 -356 0
-131 -355 356 0
c gate 357 129 268 0
129 -357 0
268 -357 0
-129 -268 357 0
c gate 358 -50 127 0
-50 -358 0
127 -358 0
50 -127 358 0
c gate 359 -52 -127 0
-52 -359 0
-127 -359 0
52 127 359 0
c gate 360 -126 -359 0
-126 -360 0
-359 -360 0
126 359 360 0
c gate 361 -358 360 0
-358 -361 0
360 -361 0
358 -360 361 0
c gate 362 -49 127 0
-49 -362 0
127 -362 0
49 -127 362 0
c gate 363 -51 -127 0
-51 -363 0
-127 -363 0
51 127 363 0
c gate 364 126 -363 0
126 -364 0
-363 -364 0
-126 363 364 0
c gate 365 -362 364 0
-362 -365 0
364 -365 0
362 -364 365 0
c gate 366 -129 -365 0
-129 -366 0
-365 -366 0
129 365 366 0
c gate 367 -361 366 0
-361 -367 0
366 -367 0
361 -366 367 0
c gate 368 128 -367 0
128 -368 0
-367 -368 0
-128 367 368 0
c gate 369 -357 368 0
-357 -369 0
368 -369 0
357 -368 369 0
c gate 370 129 246 0
129 -370 0
246 -370 0
-129 -246 370 0
c gate 371 -54 127 0
-54 -371 0
127 -371 0
54 -127 371 0
c gate 372 -56 -127 0
-56 -372 0
-127 -372 0
56 127 372 0
c gate 373 -126 -372 0
-126 -373 0
-372 -373 0
126 372 373 0
c gate 374 -371 373 0
-371 -374 0
373 -374 0
371 -373 374 0
c gate 375 -53 127 0
-53 -375 0
127 -375 0
53 -127 375 0
c gate 376 -55 -127 0
-55 -376 0
-127 -376 0
55 127 376 0
c gate 377 126 -376 0
126 -377 0
-376 -377 0
-126 376 377 0
c gate 378 -375 377 0
-375 -378 0
377 -378 0
375 -377 378 0
c gate 379 -129 -378 0
-129 -379 0
-378 -379 0
129 378 379 0
c gate 380 -374 379 0
-374 -380 0
379 -380 0
374 -379 380 0
c gate 381 -128 -380 0
-128 -381 0
-380 -381 0
128 380 381 0
c gate 382 -370 381 0
-370 -382 0
381 -382 0
370 -381 382 0
c gate 383 -131 -382 0
-131 -383 0
-382 -383 0
131 382 383 0
c gate 384 -369 383 0
-369 -384 0
383 -384 0
369 -383 384 0
c gate 385 130 -384 0
130 -385 0
-384 -385 0
-130 384 385 0
c gate 386 -356 385 0
-356 -386 0
385 -386 0
356 -385 386 0
c gate 387 132 386 0
132 -387 0
386 -387 0
-132 -386 387 0
c gate 388 -56 127 0
-56 -388 0
127 -388 0
56 -127 388 0
c gate 389 -58 -127 0
-58 -389 0
-127 -389 0
58 127 389 0
c gate 390 -126 -389 0
-126 -390 0
-389 -390 0
126 389 390 0
c gate 391 -388 390 0
-388 -391 0
390 -391 0
388 -390 391 0
c gate 392 -55 127 0
-55 -392 0
127 -392 0
55 -127 392 0
c gate 393 -57 -127 0
-57 -393 0
-127 -393 0
57 127 393 0
c gate 394 126 -393 0
126 -394 0
-393 -394 0
-126 393 394 0
c gate 395 -392 394 0
-392 -395 0
394 -395 0
392 -394 395 0
c gate 396 -391 -395 0
-391 -396 0
-395 -396 0
391 395 396 0
c gate 397 129 -396 0
129 -397 0
-396 -397 0
-129 396 397 0
c gate 398 -63 127 0
-63 -398 0
127 -398 0
63 -127 398 0
c gate 399 -65 -127 0
-65 -399 0
-127 -399 0
65 127 399 0
c gate 400 -398 -399 0
-398 -400 0
-399 -400 0
398 399 400 0
c gate 401 126 -400 0
126 -401 0
-400 -401 0
-126 400 401 0
c gate 402 -126 -191 0
-126 -402 0
-191 -402 0
126 191 402 0
c gate 403 -129 -402 0
-129 -403 0
-402 -403 0
129 402 403 0
c gate 404 -401 403 0
-401 -404 0
403 -404 0
401 -403 404 0
c gate 405 -397 -404 0
-397 -405 0
-404 -405 0
397 404 405 0
c gate 406 -128 -405 0
-128 -406 0
-405 -406 0
128 405 406 0
c gate 407 54 -127 0
54 -407 0
-127 -407 0
-54 127 407 0
c gate 408 52 127 0
52 -408 0
127 -408 0
-52 -127 408 0
c gate 409 -126 -408 0
-126 -409 0
-408 -409 0
126 408 409 0
c gate 410 -407 409 0
-407 -410 0
409 -410 0
407 -409 410 0
c gate 411 51 127 0
51 -411 0
127 -411 0
-51 -127 411 0
c gate 412 53 -127 0
53 -412 0
-127 -412 0
-53 127 412 0
c gate 413 126 -412 0
126 -413 0
-412 -413 0
-126 412 413 0
c gate 414 -411 413 0
-411 -414 0
413 -414 0
411 -413 414 0
c gate 415 -410 -414 0
-410 -415 0
-414 -415 0
410 414 415 0
c gate 416 129 -415 0
129 -416 0
-415 -416 0
-129 415 416 0
c gate 417 61 -127 0
61 -417 0
-127 -417 0
-61 127 417 0
c gate 418 59 127 0
59 -418 0
127 -418 0
-59 -127 418 0
c gate 419 126 -418 0
126 -419 0
-418 -419 0
-126 418 419 0
c gate 420 -417 419 0
-417 -420 0
419 -420 0
417 -419 420 0
c gate 421 60 127 0
60 -421 0
127 -421 0
-60 -127 421 0
c gate 422 62 -127 0
62 -422 0
-127 -422 0
-62 127 422 0
c gate 423 -126 -422 0
-126 -423 0
-422 -423 0
126 422 423 0
c gate 424 -421 423 0
-421 -424 0
423 -424 0
421 -423 424 0
c gate 425 -420 -424 0
-420 -425 0
-424 -425 0
420 424 425 0
c gate 426 -129 -425 0
-129 -426 0
-425 -426 0
129 425 426 0
c gate 427 128 -426 0
128 -427 0
-426 -427 0
-128 426 427 0
c gate 428 -416 427 0
-416 -428 0
427 -428 0
416 -427 428 0
c gate 429 -406 -428 0
-406 -429 0
-428 -429 0
406 428 429 0
c gate 430 -131 -429 0
-131 -430 0
-429 -430 0
131 429 430 0
c gate 431 27 127 0
27 -431 0
127 -431 0
-27 -127 431 0
c gate 432 29 -127 0
29 -432 0
-127 -432 0
-29 127 432 0
c gate 433 126 -432 0
126 -433 0
-432 -433 0
-126 432 433 0
c gate 434 -431 433 0
-431 -434 0
433 -434 0
431 -433 434 0
c gate 435 28 127 0
28 -435 0
127 -435 0
-28 -127 435 0
c gate 436 30 -127 0
30 -436 0
-127 -436 0
-30 127 436 0
c gate 437 -126 -436 0
-126 -437 0
-436 -437 0
126 436 437 0
c gate 438 -435 437 0
-435 -438 0
437 -438 0
435 -437 438 0
c gate 439 -434 -438 0
-434 -439 0
-438 -439 0
434 438 439 0
c gate 440 -129 -439 0
-129 -440 0
-439 -440 0
129 439 440 0
c gate 441 19 127 0
19 -441 0
127 -441 0
-19 -127 441 0
c gate 442 21 -127 0
21 -442 0
-127 -442 0
-21 127 442 0
c gate 443 126 -442 0
126 -443 0
-442 -443 0
-126 442 443 0
c gate 444 -441 443 0
-441 -444 0
443 -444 0
441 -443 444 0
c gate 445 20 127 0
20 -445 0
127 -445 0
-20 -127 445 0
c gate 446 22 -127 0
22 -446 0
-127 -446 0
-22 127 446 0
c gate 447 -126 -446 0
-126 -447 0
-446 -447 0
126 446 447 0
c gate 448 -445 447 0
-445 -448 0
447 -448 0
445 -447 448 0
c gate 449 -444 -448 0
-444 -449 0
-448 -449 0
444 448 449 0
c gate 450 129 -449 0
129 -450 0
-449 -450 0
-129 449 450 0
c gate 451 -440 -450 0
-440 -451 0
-450 -451 0
440 450 451 0
c gate 452 128 -451 0
128 -452 0
-451 -452 0
-128 451 452 0
c gate 453 24 127 0
24 -453 0
127 -453 0
-24 -127 453 0
c gate 454 26 -127 0
26 -454 0
-127 -454 0
-26 127 454 0
c gate 455 -126 -454 0
-126 -455 0
-454 -455 0
126 454 455 0
c gate 456 -453 455 0
-453 -456 0
455 -456 0
453 -455 456 0
c gate 457 23 127 0
23 -457 0
127 -457 0
-23 -127 457 0
c gate 458 25 -127 0
25 -458 0
-127 -458 0
-25 127 458 0
c gate 459 126 -458 0
126 -459 0
-458 -459 0
-126 458 459 0
c gate 460 -457 459 0
-457 -460 0
459 -460 0
457 -459 460 0
c gate 461 -456 -460 0
-456 -461 0
-460 -461 0
456 460 461 0
c gate 462 129 -461 0
129 -462 0
-461 -462 0
-129 461 462 0
c gate 463 32 127 0
32 -463 0
127 -463 0
-32 -127 463 0
c gate 464 34 -127 0
34 -464 0
-127 -464 0
-34 127 464 0
c gate 465 -126 -464 0
-126 -465 0
-464 -465 0
126 464 465 0
c gate 466 -463 465 0
-463 -466 0
465 -466 0
463 -465 466 0
c gate 467 31 127 0
31 -467 0
127 -467 0
-31 -127 467 0
c gate 468 33 -127 0
33 -468 0
-127 -468 0
-33 127 468 0
c gate 469 126 -468 0
126 -469 0
-468 -469 0
-126 468 469 0
c gate 470 -467 469 0
-467 -470 0
469 -470 0
467 -469 470 0
c gate 471 -466 -470 0
-466 -471 0
-470 -471 0
466 470 471 0
c gate 472 -129 -471 0
-129 -472 0
-471 -472 0
129 471 472 0
c gate 473 -462 -472 0
-462 -473 0
-472 -473 0
462 472 473 0
c gate 474 -128 -473 0
-128 -474 0
-473 -474 0
128 473 474 0
c gate 475 131 -474 0
131 -475 0
-474 -475 0
-131 474 475 0
c gate 476 -452 475 0
-452 -476 0
475 -476 0
452 -475 476 0
c gate 477 -430 -476 0
-430 -477 0
-476 -477 0
430 476 477 0
c gate 478 130 -477 0
130 -478 0
-477 -478 0
-130 477 478 0
c gate 479 132 478 0
132 -479 0
478 -479 0
-132 -478 479 0
c gate 480 -387 -479 0
-387 -480 0
-479 -480 0
387 479 480 0
c gate 481 -310 480 0
-310 -481 0
480 -481 0
310 -480 481 0
c gate 482 129 439 0
129 -482 0
439 -482 0
-129 -439 482 0
c gate 483 -35 127 0
-35 -483 0
127 -483 0
35 -127 483 0
c gate 484 -37 -127 0
-37 -484 0
-127 -484 0
37 127 484 0
c gate 485 126 -484 0
126 -485 0
-484 -485 0
-126 484 485 0
c gate 486 -483 485 0
-483 -486 0
485 -486 0
483 -485 486 0
c gate 487 -36 127 0
-36 -487 0
127 -487 0
36 -127 487 0
c gate 488 -38 -127 0
-38 -488 0
-127 -488 0
38 127 488 0
c gate 489 -126 -488 0
-126 -489 0
-488 -489 0
126 488 489 0
c gate 490 -487 489 0
-487 -490 0
489 -490 0
487 -489 490 0
c gate 491 -486 -490 0
-486 -491 0
-490 -491 0
486 490 491 0
c gate 492 -129 -491 0
-129 -492 0
-491 -492 0
129 491 492 0
c gate 493 -128 -492 0
-128 -493 0
-492 -493 0
128 492 493 0
c gate 494 -482 493 0
-482 -494 0
493 -494 0
482 -493 494 0
c gate 495 128 -473 0
128 -495 0
-473 -495 0
-128 473 495 0
c gate 496 -131 -495 0
-131 -496 0
-495 -496 0
131 495 496 0
c gate 497 -494 496 0
-494 -497 0
496 -497 0
494 -496 497 0
c gate 498 -3 -127 0
-3 -498 0
-127 -498 0
3 127 498 0
c gate 499 -1 127 0
-1 -499 0
127 -499 0
1 -127 499 0
c gate 500 -498 -499 0
-498 -500 0
-499 -500 0
498 499 500 0
c gate 501 126 500 0
126 -501 0
500 -501 0
-126 -500 501 0
c gate 502 -4 -127 0
-4 -502 0
-127 -502 0
4 127 502 0
c gate 503 -2 127 0
-2 -503 0
127 -503 0
2 -127 503 0
c gate 504 -126 -503 0
-126 -504 0
-503 -504 0
126 503 504 0
c gate 505 -502 504 0
-502 -505 0
504 -505 0
502 -504 505 0
c gate 506 -129 -505 0
-129 -506 0
-505 -506 0
129 505 506 0
c gate 507 -501 506 0
-501 -507 0
506 -507 0
501 -506 507 0
c gate 508 -120 -127 0
-120 -508 0
-127 -508 0
120 127 508 0
c gate 509 -118 127 0
-118 -509 0
127 -509 0
118 -127 509 0
c gate 510 -508 -509 0
-508 -510 0
-509 -510 0
508 509 510 0
c gate 511 126 510 0
126 -511 0
510 -511 0
-126 -510 511 0
c gate 512 -121 -127 0
-121 -512 0
-127 -512 0
121 127 512 0
c gate 513 -119 127 0
-119 -513 0
127 -513 0
119 -127 513 0
c gate 514 -126 -513 0
-126 -514 0
-513 -514 0
126 513 514 0
c gate 515 -512 514 0
-512 -515 0
514 -515 0
512 -514 515 0
c gate 516 129 -515 0
129 -516 0
-515 -516 0
-129 515 516 0
c gate 517 -511 516 0
-511 -517 0
516 -517 0
511 -516 517 0
c gate 518 -507 -517 0
-507 -518 0
-517 -518 0
507 517 518 0
c gate 519 128 -518 0
128 -519 0
-518 -519 0
-128 518 519 0
c gate 520 6 127 0
6 -520 0
127 -520 0
-6 -127 520 0
c gate 521 8 -127 0
8 -521 0
-127 -521 0
-8 127 521 0
c gate 522 -126 -521 0
-126 -522 0
-521 -522 0
126 521 522 0
c gate 523 -520 522 0
-520 -523 0
522 -523 0
520 -522 523 0
c gate 524 5 127 0
5 -524 0
127 -524 0
-5 -127 524 0
c gate 525 7 -127 0
7 -525 0
-127 -525 0
-7 127 525 0
c gate 526 126 -525 0
126 -526 0
-525 -526 0
-126 525 526 0
c gate 527 -524 526 0
-524 -527 0
526 -527 0
524 -526 527 0
c gate 528 -523 -527 0
-523 -528 0
-527 -528 0
523 527 528 0
c gate 529 -129 -528 0
-129 -529 0
-528 -529 0
129 528 529 0
c gate 530 125 -127 0
125 -530 0
-127 -530 0
-125 127 530 0
c gate 531 123 127 0
123 -531 0
127 -531 0
-123 -127 531 0
c gate 532 -530 -531 0
-530 -532 0
-531 -532 0
530 531 532 0
c gate 533 -126 -532 0
-126 -533 0
-532 -533 0
126 532 533 0
c gate 534 -124 -127 0
-124 -534 0
-127 -534 0
124 127 534 0
c gate 535 -122 127 0
-122 -535 0
127 -535 0
122 -127 535 0
c gate 536 -534 -535 0
-534 -536 0
-535 -536 0
534 535 536 0
c gate 537 126 536 0
126 -537 0
536 -537 0
-126 -536 537 0
c gate 538 129 -537 0
129 -538 0
-537 -538 0
-129 537 538 0
c gate 539 -533 538 0
-533 -539 0
538 -539 0
533 -538 539 0
c gate 540 -529 -539 0
-529 -540 0
-539 -540 0
529 539 540 0
c gate 541 -128 -540 0
-128 -541 0
-540 -541 0
128 540 541 0
c gate 542 -519 -541 0
-519 -542 0
-541 -542 0
519 541 542 0
c gate 543 131 542 0
131 -543 0
542 -543 0
-131 -542 543 0
c gate 544 130 -543 0
130 -544 0
-543 -544 0
-130 543 544 0
c gate 545 -497 544 0
-497 -545 0
544 -545 0
497 -544 545 0
c gate 546 132 545 0
132 -546 0
545 -546 0
-132 -545 546 0
c gate 547 -132 309 0
-132 -547 0
309 -547 0
132 -309 547 0
c gate 548 -88 -127 0
-88 -548 0
-127 -548 0
88 127 548 0
c gate 549 -86 127 0
-86 -549 0
127 -549 0
86 -127 549 0
c gate 550 -548 -549 0
-548 -550 0
-549 -550 0
548 549 550 0
c gate 551 126 550 0
126 -551 0
550 -551 0
-126 -550 551 0
c gate 552 -89 -127 0
-89 -552 0
-127 -552 0
89 127 552 0
c gate 553 -87 127 0
-87 -553 0
127 -553 0
87 -127 553 0
c gate 554 -126 -553 0
-126 -554 0
-553 -554 0
126 553 554 0
c gate 555 -552 554 0
-552 -555 0
554 -555 0
552 -554 555 0
c gate 556 129 -555 0
129 -556 0
-555 -556 0
-129 555 556 0
c gate 557 -551 556 0
-551 -557 0
556 -557 0
551 -556 557 0
c gate 558 -96 -127 0
-96 -558 0
-127 -558 0
96 127 558 0
c gate 559 -94 127 0
-94 -559 0
127 -559 0
94 -127 559 0
c gate 560 -558 -559 0
-558 -560 0
-559 -560 0
558 559 560 0
c gate 561 126 560 0
126 -561 0
560 -561 0
-126 -560 561 0
c gate 562 -126 145 0
-126 -562 0
145 -562 0
126 -145 562 0
c gate 563 -129 -562 0
-129 -563 0
-562 -563 0
129 562 563 0
c gate 564 -561 563 0
-561 -564 0
563 -564 0
561 -563 564 0
c gate 565 -557 -564 0
-557 -565 0
-564 -565 0
557 564 565 0
c gate 566 128 -565 0
128 -566 0
-565 -566 0
-128 565 566 0
c gate 567 -98 127 0
-98 -567 0
127 -567 0
98 -127 567 0
c gate 568 -100 -127 0
-100 -568 0
-127 -568 0
100 127 568 0
c gate 569 126 -568 0
126 -569 0
-568 -569 0
-126 568 569 0
c gate 570 -567 569 0
-567 -570 0
569 -570 0
567 -569 570 0
c gate 571 -126 157 0
-126 -571 0
157 -571 0
126 -157 571 0
c gate 572 -129 -571 0
-129 -572 0
-571 -572 0
129 571 572 0
c gate 573 -570 572 0
-570 -573 0
572 -573 0
570 -572 573 0
c gate 574 -92 -127 0
-92 -574 0
-127 -574 0
92 127 574 0
c gate 575 -90 127 0
-90 -575 0
127 -575 0
90 -127 575 0
c gate 576 -574 -575 0
-574 -576 0
-575 -576 0
574 575 576 0
c gate 577 126 576 0
126 -577 0
576 -577 0
-126 -576 577 0
c gate 578 -93 -127 0
-93 -578 0
-127 -578 0
93 127 578 0
c gate 579 -91 127 0
-91 -579 0
127 -579 0
91 -127 579 0
c gate 580 -126 -579 0
-126 -580 0
-579 -580 0
126 579 580 0
c gate 581 -578 580 0
-578 -581 0
580 -581 0
578 -580 581 0
c gate 582 129 -581 0
129 -582 0
-581 -582 0
-129 581 582 0
c gate 583 -577 582 0
-577 -583 0
582 -583 0
577 -582 583 0
c gate 584 -573 -583 0
-573 -584 0
-583 -584 0
573 583 584 0
c gate 585 -128 -584 0
-128 -585 0
-584 -585 0
128 584 585 0
c gate 586 131 -585 0
131 -586 0
-585 -586 0
-131 585 586 0
c gate 587 -566 586 0
-566 -587 0
586 -587 0
566 -586 587 0
c gate 588 -131 542 0
-131 -588 0
542 -588 0
131 -542 588 0
c gate 589 130 -588 0
130 -589 0
-588 -589 0
-130 588 589 0
c gate 590 -587 589 0
-587 -590 0
589 -590 0
587 -589 590 0
c gate 591 132 590 0
132 -591 0
590 -591 0
-132 -590 591 0
c gate 592 -87 -127 0
-87 -592 0
-127 -592 0
87 127 592 0
c gate 593 -85 127 0
-85 -593 0
127 -593 0
85 -127 593 0
c gate 594 126 -593 0
126 -594 0
-593 -594 0
-126 593 594 0
c gate 595 -592 594 0
-592 -595 0
594 -595 0
592 -594 595 0
c gate 596 -126 550 0
-126 -596 0
550 -596 0
126 -550 596 0
c gate 597 129 -596 0
129 -597 0
-596 -597 0
-129 596 597 0
c gate 598 -595 597 0
-595 -598 0
597 -598 0
595 -597 598 0
c gate 599 -95 -127 0
-95 -599 0
-127 -599 0
95 127 599 0
c gate 600 -93 127 0
-93 -600 0
127 -600 0
93 -127 600 0
c gate 601 126 -600 0
126 -601 0
-600 -601 0
-126 600 601 0
c gate 602 -599 601 0
-599 -602 0
601 -602 0
599 -601 602 0
c gate 603 -126 560 0
-126 -603 0
560 -603 0
126 -560 603 0
c gate 604 -129 -603 0
-129 -604 0
-603 -604 0
129 603 604 0
c gate 605 -602 604 0
-602 -605 0
604 -605 0
602 -604 605 0
c gate 606 -128 -605 0
-128 -606 0
-605 -606 0
128 605 606 0
c gate 607 -598 606 0
-598 -607 0
606 -607 0
598 -606 607 0
c gate 608 -91 -127 0
-91 -608 0
-127 -608 0
91 127 608 0
c gate 609 -89 127 0
-89 -609 0
127 -609 0
89 -127 609 0
c gate 610 126 -609 0
126 -610 0
-609 -610 0
-126 609 610 0
c gate 611 -608 610 0
-608 -611 0
610 -611 0
608 -610 611 0
c gate 612 -126 576 0
-126 -612 0
576 -612 0
126 -576 612 0
c gate 613 -129 -612 0
-129 -613 0
-612 -613 0
129 612 613 0
c gate 614 -611 613 0
-611 -614 0
613 -614 0
611 -613 614 0
c gate 615 -82 127 0
-82 -615 0
127 -615 0
82 -127 615 0
c gate 616 -84 -127 0
-84 -616 0
-127 -616 0
84 127 616 0
c gate 617 -126 -616 0
-126 -617 0
-616 -617 0
126 616 617 0
c gate 618 -615 617 0
-615 -618 0
617 -618 0
615 -617 618 0
c gate 619 -81 127 0
-81 -619 0
127 -619 0
81 -127 619 0
c gate 620 -83 -127 0
-83 -620 0
-127 -620 0
83 127 620 0
c gate 621 126 -620 0
126 -621 0
-620 -621 0
-126 620 621 0
c gate 622 -619 621 0
-619 -622 0
621 -622 0
619 -621 622 0
c gate 623 129 -622 0
129 -623 0
-622 -623 0
-129 622 623 0
c gate 624 -618 623 0
-618 -624 0
623 -624 0
618 -623 624 0
c gate 625 128 -624 0
128 -625 0
-624 -625 0
-128 624 625 0
c gate 626 -614 625 0
-614 -626 0
625 -626 0
614 -625 626 0
c gate 627 -607 -626 0
-607 -627 0
-626 -627 0
607 626 627 0
c gate 628 131 -627 0
131 -628 0
-627 -628 0
-131 627 628 0
c gate 629 -114 127 0
-114 -629 0
127 -629 0
114 -127 629 0
c gate 630 -116 -127 0
-116 -630 0
-127 -630 0
116 127 630 0
c gate 631 -126 -630 0
-126 -631 0
-630 -631 0
126 630 631 0
c gate 632 -629 631 0
-629 -632 0
631 -632 0
629 -631 632 0
c gate 633 115 -127 0
115 -633 0
-127 -633 0
-115 127 633 0
c gate 634 113 127 0
113 -634 0
127 -634 0
-113 -127 634 0
c gate 635 -633 -634 0
-633 -635 0
-634 -635 0
633 634 635 0
c gate 636 126 -635 0
126 -636 0
-635 -636 0
-126 635 636 0
c gate 637 129 -636 0
129 -637 0
-636 -637 0
-129 636 637 0
c gate 638 -632 637 0
-632 -638 0
637 -638 0
632 -637 638 0
c gate 639 -123 -127 0
-123 -639 0
-127 -639 0
123 127 639 0
c gate 640 -121 127 0
-121 -640 0
127 -640 0
121 -127 640 0
c gate 641 126 -640 0
126 -641 0
-640 -641 0
-126 640 641 0
c gate 642 -639 641 0
-639 -642 0
641 -642 0
639 -641 642 0
c gate 643 -126 536 0
-126 -643 0
536 -643 0
126 -536 643 0
c gate 644 -129 -643 0
-129 -644 0
-643 -644 0
129 643 644 0
c gate 645 -642 644 0
-642 -645 0
644 -645 0
642 -644 645 0
c gate 646 -638 -645 0
-638 -646 0
-645 -646 0
638 645 646 0
c gate 647 128 -646 0
128 -647 0
-646 -647 0
-128 646 647 0
c gate 648 119 -127 0
119 -648 0
-127 -648 0
-119 127 648 0
c gate 649 117 127 0
117 -649 0
127 -649 0
-117 -127 649 0
c gate 650 -648 -649 0
-648 -650 0
-649 -650 0
648 649 650 0
c gate 651 126 -650 0
126 -651 0
-650 -651 0
-126 650 651 0
c gate 652 -126 510 0
-126 -652 0
510 -652 0
126 -510 652 0
c gate 653 129 -652 0
129 -653 0
-652 -653 0
-129 652 653 0
c gate 654 -651 653 0
-651 -654 0
653 -654 0
651 -653 654 0
c gate 655 -2 -127 0
-2 -655 0
-127 -655 0
2 127 655 0
c gate 656 -125 127 0
-125 -656 0
127 -656 0
125 -127 656 0
c gate 657 126 -656 0
126 -657 0
-656 -657 0
-126 656 657 0
c gate 658 -655 657 0
-655 -658 0
657 -658 0
655 -657 658 0
c gate 659 -126 500 0
-126 -659 0
500 -659 0
126 -500 659 0
c gate 660 -129 -659 0
-129 -660 0
-659 -660 0
129 659 660 0
c gate 661 -658 660 0
-658 -661 0
660 -661 0
658 -660 661 0
c gate 662 -654 -661 0
-654 -662 0
-661 -662 0
654 661 662 0
c gate 663 -128 -662 0
-128 -663 0
-662 -663 0
128 662 663 0
c gate 664 -131 -663 0
-131 -664 0
-663 -664 0
131 663 664 0
c gate 665 -647 664 0
-647 -665 0
664 -665 0
647 -664 665 0
c gate 666 130 -665 0
130 -666 0
-665 -666 0
-130 665 666 0
c gate 667 -628 666 0
-628 -667 0
666 -667 0
628 -666 667 0
c gate 668 132 667 0
132 -668 0
667 -668 0
-132 -667 668 0
c gate 669 -132 386 0
-132 -669 0
386 -669 0
132 -386 669 0
c gate 670 105 127 0
105 -670 0
127 -670 0
-105 -127 670 0
c gate 671 107 -127 0
107 -671 0
-127 -671 0
-107 127 671 0
c gate 672 -126 -671 0
-126 -672 0
-671 -672 0
126 671 672 0
c gate 673 -670 672 0
-670 -673 0
672 -673 0
670 -672 673 0
c gate 674 126 -139 0
126 -674 0
-139 -674 0
-126 139 674 0
c gate 675 129 -674 0
129 -675 0
-674 -675 0
-129 674 675 0
c gate 676 -673 675 0
-673 -676 0
675 -676 0
673 -675 676 0
c gate 677 114 -127 0
114 -677 0
-127 -677 0
-114 127 677 0
c gate 678 112 127 0
112 -678 0
127 -678 0
-112 -127 678 0
c gate 679 126 -678 0
126 -679 0
-678 -679 0
-126 678 679 0
c gate 680 -677 679 0
-677 -680 0
679 -680 0
677 -679 680 0
c gate 681 -126 635 0
-126 -681 0
635 -681 0
126 -635 681 0
c gate 682 -129 -681 0
-129 -682 0
-681 -682 0
129 681 682 0
c gate 683 -680 682 0
-680 -683 0
682 -683 0
680 -682 683 0
c gate 684 -676 -683 0
-676 -684 0
-683 -684 0
676 683 684 0
c gate 685 128 -684 0
128 -685 0
-684 -685 0
-128 684 685 0
c gate 686 109 127 0
109 -686 0
127 -686 0
-109 -127 686 0
c gate 687 111 -127 0
111 -687 0
-127 -687 0
-111 127 687 0
c gate 688 -126 -687 0
-126 -688 0
-687 -688 0
126 687 688 0
c gate 689 -686 688 0
-686 -689 0
688 -689 0
686 -688 689 0
c gate 690 126 -171 0
126 -690 0
-171 -690 0
-126 171 690 0
c gate 691 129 -690 0
129 -691 0
-690 -691 0
-129 690 691 0
c gate 692 -689 691 0
-689 -692 0
691 -692 0
689 -691 692 0
c gate 693 118 -127 0
118 -693 0
-127 -693 0
-118 127 693 0
c gate 694 116 127 0
116 -694 0
127 -694 0
-116 -127 694 0
c gate 695 126 -694 0
126 -695 0
-694 -695 0
-126 694 695 0
c gate 696 -693 695 0
-693 -696 0
695 -696 0
693 -695 696 0
c gate 697 -126 650 0
-126 -697 0
650 -697 0
126 -650 697 0
c gate 698 -129 -697 0
-129 -698 0
-697 -698 0
129 697 698 0
c gate 699 -696 698 0
-696 -699 0
698 -699 0
696 -698 699 0
c gate 700 -692 -699 0
-692 -700 0
-699 -700 0
692 699 700 0
c gate 701 -128 -700 0
-128 -701 0
-700 -701 0
128 700 701 0
c gate 702 131 -701 0
131 -702 0
-701 -702 0
-131 701 702 0
c gate 703 -685 702 0
-685 -703 0
702 -703 0
685 -702 703 0
c gate 704 -131 355 0
-131 -704 0
355 -704 0
131 -355 704 0
c gate 705 130 -704 0
130 -705 0
-704 -705 0
-130 704 705 0
c gate 706 -703 705 0
-703 -706 0
705 -706 0
703 -705 706 0
c gate 707 -132 706 0
-132 -707 0
706 -707 0
132 -706 707 0
c gate 708 481 -707 0
481 -708 0
-707 -708 0
-481 707 708 0
c gate 709 -132 545 0
-132 -709 0
545 -709 0
132 -545 709 0
c gate 710 -227 -709 0
-227 -710 0
-709 -710 0
227 709 710 0
c gate 711 -708 710 0
-708 -711 0
710 -711 0
708 -710 711 0
c gate 712 -669 -711 0
-669 -712 0
-711 -712 0
669 711 712 0
c gate 713 -668 -712 0
-668 -713 0
-712 -713 0
668 712 713 0
c gate 714 -132 478 0
-132 -714 0
478 -714 0
132 -478 714 0
c gate 715 -713 -714 0
-713 -715 0
-714 -715 0
713 714 715 0
c gate 716 -591 -715 0
-591 -716 0
-715 -716 0
591 715 716 0
c gate 717 -547 -716 0
-547 -717 0
-716 -717 0
547 716 717 0
c gate 718 132 706 0
132 -718 0
706 -718 0
-132 -706 718 0
c gate 719 717 -718 0
717 -719 0
-718 -719 0
-717 718 719 0
c gate 720 -546 -719 0
-546 -720 0
-719 -720 0
546 719 720 0
c gate 721 -481 -720 0
-481 -721 0
-720 -721 0
481 720 721 0
c gate 722 -132 226 0
-132 -722 0
226 -722 0
132 -226 722 0
c gate 723 -132 667 0
-132 -723 0
667 -723 0
132 -667 723 0
c gate 724 -722 -723 0
-722 -724 0
-723 -724 0
722 723 724 0
c gate 725 -132 590 0
-132 -725 0
590 -725 0
132 -590 725 0
c gate 726 724 -725 0
724 -726 0
-725 -726 0
-724 725 726 0
c gate 727 -707 -726 0
-707 -727 0
-726 -727 0
707 726 727 0
c gate 728 -709 -727 0
-709 -728 0
-727 -728 0
709 727 728 0
c gate 729 720 -728 0
720 -729 0
-728 -729 0
-720 728 729 0
c gate 730 -721 -729 0
-721 -730 0
-729 -730 0
721 729 730 0
c gate 731 227 -730 0
227 -731 0
-730 -731 0
-227 730 731 0
c gate 732 -227 730 0
-227 -732 0
730 -732 0
227 -730 732 0
c gate 733 -731 -732 0
-731 -733 0
-732 -733 0
731 732 733 0
c PO
733 0
